
  22   10
  10   10   10   10   10   10   10   10   10   10

   0   0   0   0   0   0   0   0   0   0   0   5 2 6 8 10 12 
   1   0   0   0   0   0   0  10   0   0   0   3 21 20 3 
   4   0   0  10   0   0   0   0   0   0   0   2 5 4 
   2   0   0   0   0   0   0   0   0  10   0   3 15 9 7 
   3   0   0   0  10   0   0   0   0   0   0   4 19 15 13 11 
   6   0   0   0   0   0   0   0  10   0   0   3 21 20 9 
   6   0  10   0   0   0   0   0   0   0   0   2 19 11 
   6   0   0   0   0   0   0   0   0  10   0   2 14 11 
   9   0  10   0   0   0   0   0   0   0   0   2 14 13 
   1   0   0   0   0   0   0   0  10   0   0   1 11 
   2   0  10   0   0   0   0   0   0   0   0   3 18 17 16 
   5   0   0   0  10   0   0   0   0   0   0   2 17 14 
   5   0   0   0  10   0   0   0   0   0   0   2 17 16 
   9   0   0   0   0   0   0   0   0  10   0   1 16 
   9   0   0   0   0   0   0   0  10   0   0   1 16 
  10   0   0   0   0   0   0   0   0  10   0   1 22
   5   0  10   0   0   0   0   0   0   0   0   1 22
   1  10   0   0   0   0   0   0   0   0   0   1 22
   2   0  10   0   0   0   0   0   0   0   0   1 22
   2   0   0   0   0   0   0  10   0   0   0   1 22
   7   0  10   0   0   0   0   0   0   0   0   1 22
   0   0   0   0   0   0   0   0   0   0   0   0 
